Problem:    Equipaggi
Rows:       61
Columns:    240 (240 integer, 240 binary)
Non-zeros:  450
Status:     INTEGER OPTIMAL
Objective:  z = 16000 (MINimum)

   No.   Row name        Activity     Lower bound   Upper bound
------ ------------    ------------- ------------- -------------
     1 Assign[1]                   0            -0               
     2 Assign[2]                   0            -0               
     3 Assign[3]                   0            -0               
     4 Assign[4]                   0            -0               
     5 Assign[5]                   0            -0               
     6 Assign[6]                   0            -0               
     7 Assign[7]                   0            -0               
     8 Assign[8]                   0            -0               
     9 Assign[9]                   0            -0               
    10 Assign[10]                  0            -0               
    11 Assign[11]                  0            -0               
    12 Assign[12]                  0            -0               
    13 Assign[13]                  0            -0               
    14 Assign[14]                  0            -0               
    15 Assign[15]                  0            -0               
    16 Assign[16]                  0            -0               
    17 Assign[17]                  0            -0               
    18 Assign[18]                  0            -0               
    19 Assign[19]                  0            -0               
    20 Assign[20]                  0            -0               
    21 Assign[21]                  0            -0               
    22 Assign[22]                  0            -0               
    23 Assign[23]                  0            -0               
    24 Assign[24]                  0            -0               
    25 Assign[25]                  0            -0               
    26 Assign[26]                  0            -0               
    27 Assign[27]                  0            -0               
    28 Assign[28]                  0            -0               
    29 Assign[29]                  0            -0               
    30 Assign[30]                  0            -0               
    31 AllFlight[1]                1             1               
    32 AllFlight[2]                1             1               
    33 AllFlight[3]                3             1               
    34 AllFlight[4]                1             1               
    35 AllFlight[5]                4             1               
    36 AllFlight[6]                3             1               
    37 AllFlight[7]                2             1               
    38 AllFlight[8]                3             1               
    39 AllFlight[9]                6             1               
    40 AllFlight[10]
                                   2             1               
    41 AllFlight[11]
                                   3             1               
    42 AllFlight[12]
                                   3             1               
    43 AllFlight[13]
                                   3             1               
    44 AllFlight[14]
                                   4             1               
    45 AllFlight[15]
                                   3             1               
    46 AllFlight[16]
                                   3             1               
    47 AllFlight[17]
                                   1             1               
    48 AllFlight[18]
                                   2             1               
    49 AllFlight[19]
                                   2             1               
    50 AllFlight[20]
                                   3             1               
    51 AllFlight[21]
                                   1             1               
    52 AllFlight[22]
                                   1             1               
    53 AllFlight[23]
                                   1             1               
    54 AllFlight[24]
                                   1             1               
    55 AllFlight[25]
                                   1             1               
    56 AllFlight[26]
                                   1             1               
    57 AllFlight[27]
                                   1             1               
    58 AllFlight[28]
                                   1             1               
    59 AllFlight[29]
                                   1             1               
    60 AllFlight[30]
                                   1             1               
    61 z                       16000                             

   No. Column name       Activity     Lower bound   Upper bound
------ ------------    ------------- ------------- -------------
     1 x[1]         *              0             0             1 
     2 x[2]         *              0             0             1 
     3 x[3]         *              0             0             1 
     4 x[4]         *              0             0             1 
     5 x[5]         *              0             0             1 
     6 x[6]         *              0             0             1 
     7 x[7]         *              0             0             1 
     8 x[8]         *              0             0             1 
     9 x[9]         *              0             0             1 
    10 x[10]        *              0             0             1 
    11 x[11]        *              0             0             1 
    12 x[12]        *              0             0             1 
    13 x[13]        *              0             0             1 
    14 x[14]        *              0             0             1 
    15 x[15]        *              0             0             1 
    16 x[16]        *              0             0             1 
    17 x[17]        *              0             0             1 
    18 x[18]        *              0             0             1 
    19 x[19]        *              0             0             1 
    20 x[20]        *              0             0             1 
    21 x[21]        *              1             0             1 
    22 x[22]        *              1             0             1 
    23 x[23]        *              1             0             1 
    24 x[24]        *              1             0             1 
    25 x[25]        *              1             0             1 
    26 x[26]        *              1             0             1 
    27 x[27]        *              1             0             1 
    28 x[28]        *              0             0             1 
    29 x[29]        *              1             0             1 
    30 x[30]        *              1             0             1 
    31 y[1,1]       *              0             0             1 
    32 y[1,2]       *              0             0             1 
    33 y[1,3]       *              0             0             1 
    34 y[1,4]       *              0             0             1 
    35 y[1,5]       *              0             0             1 
    36 y[1,6]       *              0             0             1 
    37 y[1,7]       *              0             0             1 
    38 y[2,1]       *              0             0             1 
    39 y[2,2]       *              0             0             1 
    40 y[2,3]       *              0             0             1 
    41 y[2,4]       *              0             0             1 
    42 y[2,5]       *              0             0             1 
    43 y[2,6]       *              0             0             1 
    44 y[2,7]       *              0             0             1 
    45 y[3,1]       *              0             0             1 
    46 y[3,2]       *              0             0             1 
    47 y[3,3]       *              0             0             1 
    48 y[3,4]       *              0             0             1 
    49 y[3,5]       *              0             0             1 
    50 y[3,6]       *              0             0             1 
    51 y[3,7]       *              0             0             1 
    52 y[4,1]       *              0             0             1 
    53 y[4,2]       *              0             0             1 
    54 y[4,3]       *              0             0             1 
    55 y[4,4]       *              0             0             1 
    56 y[4,5]       *              0             0             1 
    57 y[4,6]       *              0             0             1 
    58 y[4,7]       *              0             0             1 
    59 y[5,1]       *              0             0             1 
    60 y[5,2]       *              0             0             1 
    61 y[5,3]       *              0             0             1 
    62 y[5,4]       *              0             0             1 
    63 y[5,5]       *              0             0             1 
    64 y[5,6]       *              0             0             1 
    65 y[5,7]       *              0             0             1 
    66 y[6,1]       *              0             0             1 
    67 y[6,2]       *              0             0             1 
    68 y[6,3]       *              0             0             1 
    69 y[6,4]       *              0             0             1 
    70 y[6,5]       *              0             0             1 
    71 y[6,6]       *              0             0             1 
    72 y[6,7]       *              0             0             1 
    73 y[7,1]       *              0             0             1 
    74 y[7,2]       *              0             0             1 
    75 y[7,3]       *              0             0             1 
    76 y[7,4]       *              0             0             1 
    77 y[7,5]       *              0             0             1 
    78 y[7,6]       *              0             0             1 
    79 y[7,7]       *              0             0             1 
    80 y[8,1]       *              0             0             1 
    81 y[8,2]       *              0             0             1 
    82 y[8,3]       *              0             0             1 
    83 y[8,4]       *              0             0             1 
    84 y[8,5]       *              0             0             1 
    85 y[8,6]       *              0             0             1 
    86 y[8,7]       *              0             0             1 
    87 y[9,1]       *              0             0             1 
    88 y[9,2]       *              0             0             1 
    89 y[9,3]       *              0             0             1 
    90 y[9,4]       *              0             0             1 
    91 y[9,5]       *              0             0             1 
    92 y[9,6]       *              0             0             1 
    93 y[9,7]       *              0             0             1 
    94 y[10,1]      *              0             0             1 
    95 y[10,2]      *              0             0             1 
    96 y[10,3]      *              0             0             1 
    97 y[10,4]      *              0             0             1 
    98 y[10,5]      *              0             0             1 
    99 y[10,6]      *              0             0             1 
   100 y[10,7]      *              0             0             1 
   101 y[11,1]      *              0             0             1 
   102 y[11,2]      *              0             0             1 
   103 y[11,3]      *              0             0             1 
   104 y[11,4]      *              0             0             1 
   105 y[11,5]      *              0             0             1 
   106 y[11,6]      *              0             0             1 
   107 y[11,7]      *              0             0             1 
   108 y[12,1]      *              0             0             1 
   109 y[12,2]      *              0             0             1 
   110 y[12,3]      *              0             0             1 
   111 y[12,4]      *              0             0             1 
   112 y[12,5]      *              0             0             1 
   113 y[12,6]      *              0             0             1 
   114 y[12,7]      *              0             0             1 
   115 y[13,1]      *              0             0             1 
   116 y[13,2]      *              0             0             1 
   117 y[13,3]      *              0             0             1 
   118 y[13,4]      *              0             0             1 
   119 y[13,5]      *              0             0             1 
   120 y[13,6]      *              0             0             1 
   121 y[13,7]      *              0             0             1 
   122 y[14,1]      *              0             0             1 
   123 y[14,2]      *              0             0             1 
   124 y[14,3]      *              0             0             1 
   125 y[14,4]      *              0             0             1 
   126 y[14,5]      *              0             0             1 
   127 y[14,6]      *              0             0             1 
   128 y[14,7]      *              0             0             1 
   129 y[15,1]      *              0             0             1 
   130 y[15,2]      *              0             0             1 
   131 y[15,3]      *              0             0             1 
   132 y[15,4]      *              0             0             1 
   133 y[15,5]      *              0             0             1 
   134 y[15,6]      *              0             0             1 
   135 y[15,7]      *              0             0             1 
   136 y[16,1]      *              0             0             1 
   137 y[16,2]      *              0             0             1 
   138 y[16,3]      *              0             0             1 
   139 y[16,4]      *              0             0             1 
   140 y[16,5]      *              0             0             1 
   141 y[16,6]      *              0             0             1 
   142 y[16,7]      *              0             0             1 
   143 y[17,1]      *              0             0             1 
   144 y[17,2]      *              0             0             1 
   145 y[17,3]      *              0             0             1 
   146 y[17,4]      *              0             0             1 
   147 y[17,5]      *              0             0             1 
   148 y[17,6]      *              0             0             1 
   149 y[17,7]      *              0             0             1 
   150 y[18,1]      *              0             0             1 
   151 y[18,2]      *              0             0             1 
   152 y[18,3]      *              0             0             1 
   153 y[18,4]      *              0             0             1 
   154 y[18,5]      *              0             0             1 
   155 y[18,6]      *              0             0             1 
   156 y[18,7]      *              0             0             1 
   157 y[19,1]      *              0             0             1 
   158 y[19,2]      *              0             0             1 
   159 y[19,3]      *              0             0             1 
   160 y[19,4]      *              0             0             1 
   161 y[19,5]      *              0             0             1 
   162 y[19,6]      *              0             0             1 
   163 y[19,7]      *              0             0             1 
   164 y[20,1]      *              0             0             1 
   165 y[20,2]      *              0             0             1 
   166 y[20,3]      *              0             0             1 
   167 y[20,4]      *              0             0             1 
   168 y[20,5]      *              0             0             1 
   169 y[20,6]      *              0             0             1 
   170 y[20,7]      *              0             0             1 
   171 y[21,1]      *              0             0             1 
   172 y[21,2]      *              0             0             1 
   173 y[21,3]      *              0             0             1 
   174 y[21,4]      *              0             0             1 
   175 y[21,5]      *              0             0             1 
   176 y[21,6]      *              0             0             1 
   177 y[21,7]      *              1             0             1 
   178 y[22,1]      *              0             0             1 
   179 y[22,2]      *              0             0             1 
   180 y[22,3]      *              0             0             1 
   181 y[22,4]      *              0             0             1 
   182 y[22,5]      *              0             0             1 
   183 y[22,6]      *              0             0             1 
   184 y[22,7]      *              1             0             1 
   185 y[23,1]      *              0             0             1 
   186 y[23,2]      *              0             0             1 
   187 y[23,3]      *              0             0             1 
   188 y[23,4]      *              0             0             1 
   189 y[23,5]      *              0             0             1 
   190 y[23,6]      *              0             0             1 
   191 y[23,7]      *              1             0             1 
   192 y[24,1]      *              0             0             1 
   193 y[24,2]      *              0             0             1 
   194 y[24,3]      *              0             0             1 
   195 y[24,4]      *              0             0             1 
   196 y[24,5]      *              0             0             1 
   197 y[24,6]      *              0             0             1 
   198 y[24,7]      *              1             0             1 
   199 y[25,1]      *              0             0             1 
   200 y[25,2]      *              0             0             1 
   201 y[25,3]      *              0             0             1 
   202 y[25,4]      *              0             0             1 
   203 y[25,5]      *              0             0             1 
   204 y[25,6]      *              0             0             1 
   205 y[25,7]      *              1             0             1 
   206 y[26,1]      *              0             0             1 
   207 y[26,2]      *              0             0             1 
   208 y[26,3]      *              0             0             1 
   209 y[26,4]      *              0             0             1 
   210 y[26,5]      *              0             0             1 
   211 y[26,6]      *              0             0             1 
   212 y[26,7]      *              1             0             1 
   213 y[27,1]      *              0             0             1 
   214 y[27,2]      *              0             0             1 
   215 y[27,3]      *              0             0             1 
   216 y[27,4]      *              0             0             1 
   217 y[27,5]      *              0             0             1 
   218 y[27,6]      *              0             0             1 
   219 y[27,7]      *              1             0             1 
   220 y[28,1]      *              0             0             1 
   221 y[28,2]      *              0             0             1 
   222 y[28,3]      *              0             0             1 
   223 y[28,4]      *              0             0             1 
   224 y[28,5]      *              0             0             1 
   225 y[28,6]      *              0             0             1 
   226 y[28,7]      *              0             0             1 
   227 y[29,1]      *              0             0             1 
   228 y[29,2]      *              0             0             1 
   229 y[29,3]      *              0             0             1 
   230 y[29,4]      *              0             0             1 
   231 y[29,5]      *              0             0             1 
   232 y[29,6]      *              0             0             1 
   233 y[29,7]      *              1             0             1 
   234 y[30,1]      *              0             0             1 
   235 y[30,2]      *              0             0             1 
   236 y[30,3]      *              0             0             1 
   237 y[30,4]      *              0             0             1 
   238 y[30,5]      *              0             0             1 
   239 y[30,6]      *              0             0             1 
   240 y[30,7]      *              1             0             1 

Integer feasibility conditions:

KKT.PE: max.abs.err = 0.00e+000 on row 0
        max.rel.err = 0.00e+000 on row 0
        High quality

KKT.PB: max.abs.err = 0.00e+000 on row 0
        max.rel.err = 0.00e+000 on row 0
        High quality

End of output
